16 32
1 2 2
1 5 5
2 3 2
2 6 5
3 4 3
3 7 3
4 8 4
5 6 2
5 9 5
6 7 2
6 10 2
7 8 5
7 11 1
8 12 1
9 10 4
9 13 5
10 11 1
10 14 1
11 12 5
11 15 2
12 16 2
13 14 1
14 15 2
15 16 3
1 13 1
2 14 2
3 15 4
4 16 4
1 4 5
5 8 1
9 12 2
13 16 5
